500
1000
266
266
265
264
264
264
263
263
261
261
261
260
259
259
259
259
258
257
256
255
254
254
252
252
252
251
251
251
250
250
248
246
246
245
244
243
243
243
242
241
241
241
241
241
240
240
240
240
238
238
238
237
236
236
235
235
235
235
234
234
234
234
234
233
233
232
232
232
232
231
231
230
230
230
230
229
228
227
226
226
226
226
226
225
225
225
224
223
223
223
223
223
222
221
220
220
218
218
217
216
215
214
214
213
213
213
213
212
212
212
212
212
211
211
210
209
209
209
209
209
209
208
208
208
207
206
206
206
204
204
203
203
203
202
202
202
201
201
201
200
200
199
199
199
199
199
199
198
198
197
197
196
196
196
195
195
193
192
192
192
191
191
189
189
188
188
188
188
187
186
185
185
184
183
183
182
181
181
181
181
180
179
179
178
178
178
178
177
177
176
174
174
174
174
174
173
173
173
172
172
169
169
168
168
168
167
167
166
165
164
163
163
163
162
162
162
161
161
161
161
160
159
159
158
158
157
156
156
154
153
152
151
151
151
151
150
150
150
150
150
148
148
148
147
147
147
147
146
146
146
144
143
143
142
142
142
142
142
141
140
140
140
139
139
138
138
138
137
136
135
135
134
134
133
133
133
133
132
132
132
132
131
130
130
128
128
128
127
127
123
123
122
122
122
121
121
121
120
119
119
118
118
117
116
116
115
114
114
114
113
113
113
113
112
111
111
111
110
110
110
109
108
107
107
106
105
105
105
105
104
104
103
102
102
102
101
100
100
99
99
98
98
97
97
97
97
95
95
92
91
91
91
91
88
87
87
87
87
86
86
86
86
85
85
85
83
83
82
82
82
82
82
81
81
81
81
80
80
79
78
78
78
77
77
77
77
76
76
76
75
75
75
74
74
74
74
74
72
72
72
71
71
70
70
68
68
68
67
67
67
66
66
65
65
65
63
62
62
62
62
61
60
60
60
60
60
59
58
57
56
56
55
55
54
53
52
52
51
51
50
50
50
50
49
49
48
48
48
48
48
47
46
46
45
45
45
44
43
43
43
41
40
39
39
38
38
36
36
34
34
34
34
32
31
30
30
30
30
29
29
29
28
27
27
26
26
25
24
23
22
22
21
21
21
19
18
18
17
16
16
